81 91802
47 61 77 80 30 69 3 74 40 53 79 56 63 12 2 66 25 67 54 73 24 51 38 4 33 26 65 10 75 32 59 7 49 21 19 34 43 22 58 18 37 44 41 14 20 71 42 13 27 35 11 15 39 23 5 1 45 62 31 55 70 78 81 16 52 46 29 28 36 17 6 50 8 72 68 64 76 57 48 9 60 
